x =  100;
y =  100;
c = 114;

n =  25;

// Let's index products with letters: A, B, C, ...

//     B   A   D   C   F   E   G   H   I   J   K   L   M   N   O   P   Q   R   S   T   U   V   W   X   Y
p = [  5   5   6   1   5   6   7   5   6   4   1   8   1   3   7   8   2   8   7   3   1   1   5   5   4  ];
w = [  8   7   6   4   7   5   3   3   7   4   2   7   5   3   8   6   8   8   9   1   2   9   2   2   9  ];
s = [  73   73   27   27   27   27   27   27   27   19   19   8   8   8   8   3   3   3   3   2   2   1   1   1   1  ];
